####################################################
## RHEO wall-debug branch, 3/28/2022              ##
## Run poiseuille inlet                           ##
####################################################

dimension          3
units              lj
atom_style         rheo
boundary           f f f 
comm_modify        vel yes
newton on

############################################
## Re Parameters ##
############################################

variable           sf equal 1 #/${L} #scaling of unit cell

############################################
## Particle Lattice/Resolution Parameters ##
############################################

variable           nb equal 1    #number of basis atoms depends on lattice
variable           n equal ${nb}/(${sf}^3)
variable           del equal ${sf}#*sqrt(2)
variable           hd equal 3.0
variable           h3 equal ${hd}*${del}

############################################
##              Create box                ##
############################################

# read_data            ../../nozzle_data_H7p5.data
region             box block 0 200 0 100 0 100 units box
create_box         3 box
lattice              sc ${n}

region             plate block 190 195 EDGE EDGE EDGE EDGE units box
create_atoms       2 region plate
# region               hopper cylinder x 8.5 8.5 6.25 4.5 8 units box
# create_atoms         1 region hopper

# region             nozzle_all cylinder x 8.5 8.5 6.25 1.5 18.5 units box
# group              nozzle_all dynamic all region nozzle_all every 100

variable           fext_type atom (type==1) #includes original fluid and solid inlet
group              fext_group dynamic all var fext_type

group              fluid type 1 
group              solid_fixed type 2
group              solid_moving type 3
group              solid union solid_fixed solid_moving


variable           strip_width equal $(lx/40)
change_box         all x final $(xlo) $(xhi+v_strip_width) units box
# Expand box to the right by a distance equal to the length inserted

# Shift atoms by same increment
displace_atoms     all move ${strip_width} 0 0

variable           seed equal 135414
variable           dr equal 0.1*${del}
# displace_atoms     fluid random ${dr} ${dr} 0 ${seed} units box


############################################
##         Potential parameters           ##
############################################

# variable           T_C equal 145/240 #from NIST challenge statement
# variable           T_m equal 217.5/240 #looked up online

variable           rho0 equal 1.0
variable           mp equal ${rho0}/${n}
variable           cs equal 20
variable           zeta equal 1 
variable           D equal 1e-2 #thermal diffusivity
variable	       kappa equal ${D}*${rho0}/${mp}
variable           eta equal 100


#freeze parameters
variable           cutb equal 1.5*${sf}
variable           k equal 20*0.1*${h3}/${cs}/3 #at least 20x dt 
variable           gamma equal 10*0.1*${h3}/${cs}/3 #~10x dt
variable           Dr equal 0.1*${h3}*${cs}

pair_style         rheo ${h3} artificial/visc ${zeta} rho/damp ${Dr} #rheo/react #thermal/expand
pair_coeff         * * ${rho0} ${cs}
# pair_coeff         * * rheo/react ${h3} 1.5 1.0 0.05 1.0 100 2.0 0.75 2.0
                                  #cut #cutb #k #eps #gam #t #rlim #sig #krepel(deprecated)
# pair_coeff         * * rheo/freeze ${h3} .75 0.25 0.5 0.05 0.5  #0.05 0.5 0.01
                                  # cut  cutb k  sig eps  gamma 


############################################
##         Particle Properties            ##
############################################

mass               1 ${mp}
mass               2 ${mp}
mass               3 ${mp}

set                group all rho ${rho0}
set                group all phase 0
set                group solid_fixed phase 5
set                group solid_moving phase 5

set                group all temp 1.0
# set                group solid_moving temp ${T_C}

velocity           all set 0 0 0

############################################
##         Integration and fixes          ##
############################################

variable           U_L equal 0.01 #should be 2x your desired speed (since sf=0.5)
variable           T_tot equal ly/(${U_L}/2)

#CFL criterion
variable           dt equal 0.025
timestep           ${dt}
# Redefine to a more "round" number 
variable           fext equal 1e-5/${n}

fix                1 all rheo ${h3} Quintic 5 shift
fix                2 all rheo/viscosity constant ${eta}
# fix                3 fluid addforce ${fext} 0.0 0.0
fix                4 fext_group addforce ${fext} 0.0 0.0
fix                5 solid_fixed setforce 0.0 0.0 0.0
# fix                6 solid_moving setforce 0.0 0.0 0.0
# fix                7 solid_moving move linear 0.0 ${U_L} 0.0 #this value scales with sf and is not absolute
fix                8 all rheo/surface ${h3} 2.5 4
fix                9 all rheo/inlet ${h3} data_inlet_0p5 ${strip_width} $(v_strip_width/5000000)
# fix                10 thermal_group rheo/thermal conductivity constant ${kappa} cv constant 1.0 Tfreeze constant ${T_m} #alpha constant 0.01
# Args are file, width of insertion, velocity of inserted particles. 
#
# Some requirements:
#  1) The width should be >= the kernel cutoff to avoid particles seeing a void
#  2) Lx/width must be an integer - inserted strips evenly divide read datafile
#  3) Lx*(dt*vx) must be an integer - strips are inserted on a discrete timestep
#  4) The y and z dimensions of the input data file need to match the box dimensions
#  5) xlo needs to be zero
# These requirements are ~fudged due to float artithmetic and can easily error
#
# In the future, I plan to generalize and remove (2) by letting strips straddle 
# the PBC, (3) by alternatively requiring the strip length exceeds the kernel
# length by a buffer equal to the distance an inserted atom moves in a timestep,
# and (4)
#
# Note, fluid atoms within a region of 2x the inserted width move at a fixed v
# Solid atoms only have a buffer of 1x the inserted width (less worry with density
# evolution).
#
# Fluid atoms on the edge of the system (inserted width) have rho interpolate
# linearly from it's intial value value to 1.0 to reduce effects of seeing the void
# Shifting is also turned off
# Adhoc - can improve. Ideally we'd somehow extend valuse of atoms entering
# the buffer to the rest of the atoms in a buffer, but need to bin horizontally...
# Or create ghost atoms to mirror...


variable           skin equal 0.2*${h3}
neighbor           ${skin} bin
neigh_modify       one 5000

############################################
##            Output and run              ##
############################################

compute            den all property/atom rho
compute            phase all property/atom phase
compute            surf all property/atom surface
# compute            temp all property/atom temp
# compute            nbond all property/atom i_rheo_freeze_nbond
compute            eta all property/atom viscosity
# compute            nbond all property/atom i_rheo_react_nbond


dump               1 all custom 2500 dump/eta100_dtp035.atoms id type x y z vx vy vz fx fy c_den c_phase c_surf c_eta #c_nbond #f_rheo_grad_gradv[*] f_7[1] f_7[2] 

thermo             2500
thermo_style       custom step time ke press
thermo_modify      norm no lost ignore

variable           n_steps equal 153000+round(${T_tot}/${dt})
run                50000000 #${n_steps}

#delete everythig above the layer and the build plate
# region             clear_nozzle block EDGE 19 EDGE EDGE EDGE EDGE units box
# group              clear_nozzle region clear_nozzle
# delete_atoms       group clear_nozzle
# write_data         ../../final_data/layer_1.extrusion_240_1_1e-2_0p1.data nofix

