####################################################
## RHEO wall-debug branch, 3/28/2022              ##
## Create initial conditions for poiseuille inlet ##
####################################################

dimension          3
units              lj
atom_style         rheo
boundary           p p p 
comm_modify        vel yes
newton off

############################################
## Re Parameters ##
############################################
variable           sf equal 1 #/${L} #scaling of unit cell


############################################
## Particle Lattice/Resolution Parameters ##
############################################

variable           nb equal 1    #number of basis atoms depends on lattice
variable           n equal ${nb}/(${sf}^3)
variable           del equal ${sf}#*sqrt(2)
variable           hd equal 3.0
variable           h3 equal ${hd}*${del}
variable           dz equal 0.1*${sf}

############################################
##              Create box                ##
############################################

region             box block 0 60 0 25 0 25 units box
create_box         3 box
lattice            sc ${n}

region             nozzle_interior cylinder x 25 25 8 EDGE EDGE units box

create_atoms       1 region nozzle_interior

group              fluid type 1


# #Now randomly displace in x and y up %20 of their spacing (sf)
# variable           seed equal 135414
# variable           dr equal 0.1*${del}
# displace_atoms     fluid random ${dr} ${dr} 0 ${seed} units box

############################################
##         Potential parameters           ##
############################################

variable           rho0 equal 1.0
variable           mp equal ${rho0}/${n}
variable           cs equal 20
variable           zeta equal 1 
variable           eta equal 100 
#eta = 1 becomes fully developed faster than 0.1; gives better profile

variable           Dr equal 0.1*${h3}*${cs}
pair_style         rheo ${h3} artificial/visc ${zeta} rho/damp ${Dr}
pair_coeff         * * ${rho0} ${cs}

############################################
##         Particle Properties            ##
############################################

mass               1 ${mp}
mass               2 ${mp}
mass               3 ${mp}

set                group all rho ${rho0}
set                group all phase 0
# set                group solid phase 5
set                group all temp 1

#Apply some random velocity to 'melt' fluid
# velocity           fluid create 0.001 253443

variable           seed equal 135414
variable           dr equal 0.1*${del}
# displace_atoms     all random ${dr} ${dr} 0 ${seed} units box

############################################
##         Integration and fixes          ##
############################################

fix                1 all rheo ${h3} Quintic 0 shift
fix                2 all rheo/viscosity constant ${eta} 
#fix                3 solid setforce 0.0 0.0 0.0

#CFL criterion
variable           dt_max equal  0.1*${h3}/${cs} 
timestep           ${dt_max} 

variable           skin equal 0.2*${h3}
neighbor           ${skin} bin
neigh_modify       one 5000

############################################
##            Output and run              ##
############################################

compute            den all property/atom rho
compute            phase all property/atom phase
compute            eta all property/atom viscosity

thermo             500
thermo_style       custom step time ke press
thermo_modify      norm no

comm_style          tiled
fix                 7 all balance 1000 1.1 rcb


run                1000

# write_data         data_initial nofix #fluid and solid
# delete_atoms       group solid
write_data         data_inlet_0p5 nofix #fluid only
